p tw 59 69
1 2
2 13
3 4
4 5
5 11
6 7
7 8
7 11
8 9
9 10
9 11
10 11
11 12
12 14
13 24
14 15
14 20
15 16
16 17
16 30
17 18
18 19
18 44
19 48
20 21
21 22
21 28
22 23
23 25
24 35
25 26
26 27
27 30
28 29
29 30
30 31
31 32
32 33
33 34
34 36
35 46
36 37
37 38
37 52
38 39
39 40
40 41
41 42
42 43
43 52
44 45
45 47
46 56
47 48
47 52
48 49
49 50
49 52
50 51
51 52
52 53
53 54
54 55
56 57
56 6
57 58
58 59
58 11
59 3
